c ren 1 -> 1
c ren 2 -> 2
c ren 3 -> 3
c ren 4 -> 4
c ren 5 -> 5
c ren 6 -> 6
c ren 7 -> 7
c ren 8 -> 8
c ren 9 -> 9
c ren 10 -> 10
c ren 11 -> 11
c ren 12 -> 12
c ren 13 -> 13
c ren 15 -> 14
c ren 17 -> 15
c ren 18 -> 16
c ren 19 -> 17
c ren 20 -> 18
c ren 21 -> 19
c ren 22 -> 20
c ren 24 -> 21
c ren 25 -> 22
c ren 26 -> 23
c ren 29 -> 24
c ren 37 -> 25
c ren 51 -> 26
c ren 52 -> 27
c ren 60 -> 28
p cnf 28 70
a 1 2 3 4 5 6 7 8 9 10 11 12 13 14 15 16 17 18 19 20 0
d 21 17 18 0
d 22 15 16 0
d 23 19 20 0
e 24 25 26 27 28 0
-9 -15 -24 0
9 -10 -15 24 0
5 6 7 8 10 -22 26 -27 -28 0
9 -10 15 -24 0
5 6 7 8 -9 -22 26 -27 -28 0
10 15 24 0
5 6 7 8 9 -10 22 -25 26 -27 -28 0
-1 -25 0
1 2 3 4 5 6 -8 12 -14 -21 26 -27 -28 0
-1 3 4 5 6 11 12 13 14 -21 26 -27 -28 0
-2 -25 0
-4 -25 0
7 8 -10 -16 -17 18 -24 -25 -26 0
7 8 9 10 -16 -17 -18 -24 -25 -26 0
-7 -9 16 17 18 -24 25 -26 0
-7 9 10 -16 17 -18 -24 -25 -26 0
7 8 -9 -16 -17 18 -24 -25 -26 0
-7 -9 -16 17 18 -24 -25 -26 0
-8 9 10 16 17 -18 -24 25 -26 0
1 2 3 4 5 6 -9 12 -14 -21 26 -27 -28 0
1 2 3 4 5 6 7 8 9 10 -11 21 26 -27 -28 0
-8 9 10 -16 17 -18 -24 -25 -26 0
1 2 3 4 5 6 -7 -11 -21 26 -27 -28 0
7 8 -9 16 -17 18 -24 25 -26 0
-8 -9 -16 17 18 -24 -25 -26 0
7 8 -10 16 -17 18 -24 25 -26 0
-6 9 10 11 -12 -23 26 -27 -28 0
-7 -10 16 17 18 -24 25 -26 0
24 26 0
1 2 3 4 5 6 -8 12 -13 -21 26 -27 -28 0
-7 9 10 16 17 -18 -24 25 -26 0
-19 -25 27 0
19 25 27 0
-8 -10 16 17 18 -24 25 -26 0
-7 -10 -16 17 18 -24 -25 -26 0
-5 20 28 0
-7 20 28 0
5 6 7 8 -20 28 0
-6 9 10 11 13 14 -23 26 -27 -28 0
9 10 11 -12 -23 25 26 -27 -28 0
-9 15 24 0
10 -15 -24 0
5 6 7 8 9 10 11 -12 23 -25 26 -27 -28 0
5 6 7 8 9 10 11 13 14 23 -25 26 -27 -28 0
-5 9 10 11 13 14 -23 26 -27 -28 0
-6 20 28 0
-8 -9 16 17 18 -24 25 -26 0
1 2 3 4 5 6 -7 12 -14 -21 26 -27 -28 0
1 2 3 4 5 6 -9 12 -13 -21 26 -27 -28 0
1 2 3 4 5 6 -8 -11 -21 26 -27 -28 0
1 2 3 4 5 6 -10 12 -14 -21 26 -27 -28 0
1 2 3 4 5 6 7 8 9 10 12 -14 21 26 -27 -28 0
-2 3 4 5 6 11 12 13 14 -21 26 -27 -28 0
1 2 3 4 25 0
1 2 3 4 5 6 -10 12 -13 -21 26 -27 -28 0
-8 -10 -16 17 18 -24 -25 -26 0
1 2 3 4 5 6 -9 -11 -21 26 -27 -28 0
1 2 3 4 5 6 -10 -11 -21 26 -27 -28 0
7 8 9 10 16 -17 -18 -24 25 -26 0
-3 -25 0
9 10 11 13 14 -23 25 26 -27 -28 0
-8 9 10 11 -12 -23 26 -27 -28 0
-8 20 28 0
5 6 7 8 -22 25 26 -27 -28 0
-8 9 10 11 13 14 -23 26 -27 -28 0
-5 9 10 11 -12 -23 26 -27 -28 0
1 2 3 4 5 6 7 8 9 10 12 -13 21 26 -27 -28 0
-7 9 10 11 -12 -23 26 -27 -28 0
-7 9 10 11 13 14 -23 26 -27 -28 0
1 2 3 4 5 6 -7 12 -13 -21 26 -27 -28 0
